00:00.0 clingo version 5.5.1
00:00.0 Reading from ...ols/../encodings/CTW_nat_optimal_V2.lp ...
29:59.874 UNKNOWN
30:00.176 
30:00.181 TIME LIMIT   : 1
30:00.190 Models       : 0+
30:00.190 Calls        : 1
30:00.190 Time         : 1800.043s (Solving: 0.00s 1st Model: 0.00s Unsat: 0.00s)
30:00.191 CPU Time     : 124.864s
